c defined variables: 33 34 35 36 37 38 39 40 41 42 43 44 45 46 47 48 49 50 51 52 53 54 55 56 57 58 59 60 61 62 63 64 65 66 67 68 69 70 71 72 73 74 75 76 77 78 79 80 81 82 83 84 85 86 87 88 89 90 91 92 93 94 95 96 97 98 99 100 101 102 103 104 105 106 107 108 109 110 111 112 113 114 115 116 117 118 119 120 121 122 123 124 125 126 127 128 129 130 131 132 133 134 135 136 137 138 139 140 141 142 143 144 145 146 147 148 149 150 151 152 153 154 155 156 157 158 159 160 161 162 163 164 165 166 167 205 206 207 208 209 210 211 212 213 214 215 216 217 219 220 222 223 224 225 227 228 229 230 233 234 235 236 237 238 239 240 241 242 243 244 245 246 247 248 250 251 252 253 254 255 256 257 258 259 260 262 263 265 266 267 268 269 270 271 272 273 274 275 276 277 278 279 280 281 282 283 284 285 286 287 288 289 290 291 292 294 295 296 297 298 299 300 301 302 303 304 305 306 307 308 309 310 311 312 313 314 315 316 317 318 319 320 321 322 323 324 325 326 328 329 330 331 332 333 334 335 336 337 338 339 340 342 
p cnf 1500 2251
a 1 2 3 4 5 6 7 8 9 10 11 12 13 14 15 16 17 18 19 20 21 22 23 24 25 26 27 28 29 30 31 32 177 178 179 180 181 182 183 184 185 186 187 188 189 190 191 192 193 194 195 196 197 198 199 200 201 202 0
e 33 34 35 36 37 38 39 40 41 42 43 44 45 46 47 48 49 50 51 52 53 54 55 56 57 58 59 60 61 62 63 64 65 66 67 68 69 70 71 72 73 74 75 76 77 78 79 80 81 82 83 84 85 86 87 88 89 90 91 92 93 94 95 96 97 98 99 100 101 102 103 104 105 106 107 108 109 110 111 112 113 114 115 116 117 118 119 120 121 122 123 124 125 126 127 128 129 130 131 132 133 134 135 136 137 138 139 140 141 142 143 144 145 146 147 148 149 150 151 152 153 154 155 156 157 158 159 160 161 162 163 164 165 166 167 205 206 207 208 209 210 211 212 213 214 215 216 217 219 220 222 223 224 225 227 228 229 230 233 234 235 236 237 238 239 240 241 242 243 244 245 246 247 248 250 251 252 253 254 255 256 257 258 259 260 262 263 265 266 267 268 269 270 271 272 273 274 275 276 277 278 279 280 281 282 283 284 285 286 287 288 289 290 291 292 294 295 296 297 298 299 300 301 302 303 304 305 306 307 308 309 310 311 312 313 314 315 316 317 318 319 320 321 322 323 324 325 326 328 329 330 331 332 333 334 335 336 337 338 339 340 342 1216 1217 1218 1219 1220 1221 1222 1223 1224 1225 1226 1227 1228 1229 1230 1231 1232 1233 1234 1235 1236 1237 1238 1239 1240 1241 1242 1243 1244 1245 1246 1247 1248 1249 1250 1251 1252 1253 1254 1255 1256 1257 1258 1259 1260 1261 1262 1263 1264 1265 1266 1267 1268 1269 1270 1271 1272 1273 1274 1275 1276 1277 1278 1279 1280 1281 1282 1283 1284 1285 1286 1287 1288 1289 1290 1291 1292 1293 1294 1295 1296 1297 1298 1299 1300 1301 1302 1303 1304 1305 1306 1307 1308 1309 1310 1311 1312 1313 1314 1315 1316 1317 1318 1319 1320 1321 1322 1323 1324 1325 1326 1327 1328 1329 1330 1331 1332 1333 1334 1335 1336 1337 1338 1339 1340 1341 1342 1343 1344 1345 1346 1347 1348 1349 1350 1351 1352 1353 1354 1355 1356 1357 1358 1359 1360 1361 1362 1363 1364 1365 1366 1367 1368 1369 1370 1371 1372 1373 1374 1375 1376 1377 1378 1379 1380 1381 1382 1383 1384 1385 1386 1387 1388 1389 1390 1391 1392 1393 1394 1395 1396 1397 1398 1399 1400 1401 1402 1403 1404 1405 1406 1407 1408 1409 1410 1411 1412 1413 1414 1415 1416 1417 1418 1419 1420 1421 1422 1423 1424 1425 1426 1427 1428 1429 1430 1431 1432 1433 1434 1435 1436 1437 1438 1439 1440 1441 1442 1443 1444 1445 1446 1447 1448 1449 1450 1451 1452 1453 1454 1455 1456 1457 1458 1459 1460 1461 1462 1463 1464 1465 1466 1467 1468 1469 1470 1471 1472 1473 1474 1475 1476 1477 1478 1479 1480 1481 1482 1483 1484 1485 1486 1487 1488 1489 1490 1491 1492 1493 1494 1495 1496 1497 1498 1499 1500 0
d 168 177 178 0
d 169 181 182 0
d 170 179 180 0
d 171 185 186 0
d 172 187 188 189 190 191 192 193 194 0
d 173 187 188 189 190 191 192 193 194 0
d 174 183 184 0
d 175 195 196 197 198 199 200 201 202 0
d 176 195 196 197 198 199 200 201 202 0
d 203 1 2 3 4 5 6 7 8 9 10 11 12 13 14 15 16 17 18 19 20 21 22 23 24 25 26 27 28 29 30 31 32 177 178 179 180 181 182 183 184 185 186 187 188 189 190 191 192 193 194 195 196 197 198 199 200 201 202 0
d 204 1 2 3 4 5 6 7 8 9 10 11 12 13 14 15 16 17 18 19 20 21 22 23 24 25 26 27 28 29 30 31 32 177 178 179 180 181 182 183 184 185 186 187 188 189 190 191 192 193 194 195 196 197 198 199 200 201 202 0
d 218 1 2 3 4 5 6 7 8 9 10 11 12 13 14 15 16 17 18 19 20 21 22 23 24 25 26 27 28 29 30 31 32 177 178 179 180 181 182 183 184 185 186 187 188 189 190 191 192 193 194 195 196 197 198 199 200 201 202 0
d 221 1 2 3 4 5 6 7 8 9 10 11 12 13 14 15 16 17 18 19 20 21 22 23 24 25 26 27 28 29 30 31 32 177 178 179 180 181 182 183 184 185 186 187 188 189 190 191 192 193 194 195 196 197 198 199 200 201 202 0
d 226 1 2 3 4 5 6 7 8 9 10 11 12 13 14 15 16 17 18 19 20 21 22 23 24 25 26 27 28 29 30 31 32 177 178 179 180 181 182 183 184 185 186 187 188 189 190 191 192 193 194 195 196 197 198 199 200 201 202 0
d 231 1 2 3 4 5 6 7 8 9 10 11 12 13 14 15 16 17 18 19 20 21 22 23 24 25 26 27 28 29 30 31 32 177 178 179 180 181 182 183 184 185 186 187 188 189 190 191 192 193 194 195 196 197 198 199 200 201 202 0
d 232 1 2 3 4 5 6 7 8 9 10 11 12 13 14 15 16 17 18 19 20 21 22 23 24 25 26 27 28 29 30 31 32 177 178 179 180 181 182 183 184 185 186 187 188 189 190 191 192 193 194 195 196 197 198 199 200 201 202 0
d 249 1 2 3 4 5 6 7 8 9 10 11 12 13 14 15 16 17 18 19 20 21 22 23 24 25 26 27 28 29 30 31 32 177 178 179 180 181 182 183 184 185 186 187 188 189 190 191 192 193 194 195 196 197 198 199 200 201 202 0
d 261 1 2 3 4 5 6 7 8 9 10 11 12 13 14 15 16 17 18 19 20 21 22 23 24 25 26 27 28 29 30 31 32 177 178 179 180 181 182 183 184 185 186 187 188 189 190 191 192 193 194 195 196 197 198 199 200 201 202 0
d 264 1 2 3 4 5 6 7 8 9 10 11 12 13 14 15 16 17 18 19 20 21 22 23 24 25 26 27 28 29 30 31 32 177 178 179 180 181 182 183 184 185 186 187 188 189 190 191 192 193 194 195 196 197 198 199 200 201 202 0
d 293 1 2 3 4 5 6 7 8 9 10 11 12 13 14 15 16 17 18 19 20 21 22 23 24 25 26 27 28 29 30 31 32 177 178 179 180 181 182 183 184 185 186 187 188 189 190 191 192 193 194 195 196 197 198 199 200 201 202 0
d 327 1 2 3 4 5 6 7 8 9 10 11 12 13 14 15 16 17 18 19 20 21 22 23 24 25 26 27 28 29 30 31 32 177 178 179 180 181 182 183 184 185 186 187 188 189 190 191 192 193 194 195 196 197 198 199 200 201 202 0
d 341 1 2 3 4 5 6 7 8 9 10 11 12 13 14 15 16 17 18 19 20 21 22 23 24 25 26 27 28 29 30 31 32 177 178 179 180 181 182 183 184 185 186 187 188 189 190 191 192 193 194 195 196 197 198 199 200 201 202 0
1216 -33 0
-1216 33 0
1217 -34 0
-1217 34 0
-1218 -35 0
1218 35 0
1219 -36 0
-1219 36 0
1220 -37 0
-1220 37 0
-1221 -38 0
1221 38 0
1222 -39 0
-1222 39 0
1223 -40 0
-1223 40 0
-1224 -41 0
1224 41 0
-12 -42 0
12 42 0
-1225 -43 0
1225 43 0
-11 -44 0
11 44 0
-1226 -45 0
1226 45 0
-10 -46 0
10 46 0
-1227 -47 0
1227 47 0
-9 -48 0
9 48 0
-1228 -49 0
1228 49 0
-49 -50 0
49 50 0
1229 -51 0
-1229 51 0
1231 -52 0
-1231 52 0
1233 -53 0
-1233 53 0
-1236 -54 0
1236 54 0
1237 -55 0
-1237 55 0
1238 -56 0
-1238 56 0
-1239 -57 0
1239 57 0
1240 -58 0
-1240 58 0
1241 -59 0
-1241 59 0
1242 -60 0
-1242 60 0
1243 -61 0
-1243 61 0
-1244 -62 0
1244 62 0
1245 -63 0
-1245 63 0
1246 -64 0
-1246 64 0
-1247 -65 0
1247 65 0
1248 -66 0
-1248 66 0
1249 -67 0
-1249 67 0
-1250 -68 0
1250 68 0
1251 -69 0
-1251 69 0
1252 -70 0
-1252 70 0
-1253 -71 0
1253 71 0
-8 -72 0
8 72 0
-1254 -73 0
1254 73 0
-7 -74 0
7 74 0
-1255 -75 0
1255 75 0
-6 -76 0
6 76 0
-1256 -77 0
1256 77 0
-5 -78 0
5 78 0
-1257 -79 0
1257 79 0
-79 -80 0
79 80 0
1258 -81 0
-1258 81 0
1260 -82 0
-1260 82 0
1262 -83 0
-1262 83 0
-1265 -84 0
1265 84 0
1266 -85 0
-1266 85 0
1267 -86 0
-1267 86 0
-1268 -87 0
1268 87 0
1269 -88 0
-1269 88 0
1270 -89 0
-1270 89 0
1271 -90 0
-1271 90 0
1272 -91 0
-1272 91 0
-1273 -92 0
1273 92 0
1274 -93 0
-1274 93 0
1275 -94 0
-1275 94 0
-1276 -95 0
1276 95 0
1277 -96 0
-1277 96 0
1278 -97 0
-1278 97 0
-1279 -98 0
1279 98 0
1280 -99 0
-1280 99 0
1281 -100 0
-1281 100 0
-1282 -101 0
1282 101 0
-4 -102 0
4 102 0
-1283 -103 0
1283 103 0
-3 -104 0
3 104 0
-1284 -105 0
1284 105 0
-2 -106 0
2 106 0
-1285 -107 0
1285 107 0
-1 -108 0
1 108 0
-1286 -109 0
1286 109 0
-109 -110 0
109 110 0
1287 -111 0
-1287 111 0
1289 -112 0
-1289 112 0
1291 -113 0
-1291 113 0
-1294 -114 0
1294 114 0
1295 -115 0
-1295 115 0
1296 -116 0
-1296 116 0
-1297 -117 0
1297 117 0
1298 -118 0
-1298 118 0
1299 -119 0
-1299 119 0
1300 -120 0
-1300 120 0
1301 -121 0
-1301 121 0
-1302 -122 0
1302 122 0
1303 -123 0
-1303 123 0
1304 -124 0
-1304 124 0
-1305 -125 0
1305 125 0
1306 -126 0
-1306 126 0
1307 -127 0
-1307 127 0
-1308 -128 0
1308 128 0
1309 -129 0
-1309 129 0
1310 -130 0
-1310 130 0
-1311 -131 0
1311 131 0
-16 -132 0
16 132 0
-1312 -133 0
1312 133 0
-15 -134 0
15 134 0
-1313 -135 0
1313 135 0
-14 -136 0
14 136 0
-1314 -137 0
1314 137 0
-13 -138 0
13 138 0
-1315 -139 0
1315 139 0
-139 -140 0
139 140 0
1316 -141 0
-1316 141 0
1318 -142 0
-1318 142 0
1320 -143 0
-1320 143 0
-1323 -144 0
1323 144 0
1324 -145 0
-1324 145 0
1325 -146 0
-1325 146 0
-1326 -147 0
1326 147 0
1327 -148 0
-1327 148 0
1328 -149 0
-1328 149 0
-144 -150 0
144 150 0
-1329 -151 0
1329 151 0
-54 -152 0
54 152 0
-1330 -153 0
1330 153 0
-84 -154 0
84 154 0
-1331 -155 0
1331 155 0
-114 -156 0
114 156 0
-1332 -157 0
1332 157 0
-157 -158 0
157 158 0
1333 -159 0
-1333 159 0
1335 -160 0
-1335 160 0
1337 -161 0
-1337 161 0
-1340 -162 0
1340 162 0
1341 -163 0
-1341 163 0
1342 -164 0
-1342 164 0
-1343 -165 0
1343 165 0
1344 -166 0
-1344 166 0
1345 -167 0
-1345 167 0
-1346 -205 0
1346 205 0
1248 -206 0
-1248 206 0
1249 -207 0
-1249 207 0
-1347 -208 0
1347 208 0
1251 -209 0
-1251 209 0
1252 -210 0
-1252 210 0
-1348 -211 0
1348 211 0
-8 -212 0
8 212 0
-1349 -213 0
1349 213 0
-7 -214 0
7 214 0
-1350 -215 0
1350 215 0
-6 -216 0
6 216 0
-1351 -217 0
1351 217 0
1352 -219 0
-1352 219 0
1354 -220 0
-1354 220 0
-1357 -222 0
1357 222 0
1266 -223 0
-1266 223 0
1267 -224 0
-1267 224 0
-1358 -225 0
1358 225 0
1359 -227 0
-1359 227 0
1360 -228 0
-1360 228 0
1361 -229 0
-1361 229 0
-1362 -230 0
1362 230 0
-1363 -233 0
1363 233 0
1303 -234 0
-1303 234 0
1304 -235 0
-1304 235 0
-1364 -236 0
1364 236 0
1306 -237 0
-1306 237 0
1307 -238 0
-1307 238 0
-1365 -239 0
1365 239 0
1309 -240 0
-1309 240 0
1310 -241 0
-1310 241 0
-1366 -242 0
1366 242 0
-16 -243 0
16 243 0
-1367 -244 0
1367 244 0
-15 -245 0
15 245 0
-1368 -246 0
1368 246 0
-14 -247 0
14 247 0
-1369 -248 0
1369 248 0
1370 -250 0
-1370 250 0
1372 -251 0
-1372 251 0
1374 -252 0
-1374 252 0
-1377 -253 0
1377 253 0
1324 -254 0
-1324 254 0
1325 -255 0
-1325 255 0
-1378 -256 0
1378 256 0
1379 -257 0
-1379 257 0
1380 -258 0
-1380 258 0
-253 -259 0
253 259 0
-1381 -260 0
1381 260 0
-222 -262 0
222 262 0
-1382 -263 0
1382 263 0
-1383 -265 0
1383 265 0
-265 -266 0
265 266 0
1384 -267 0
-1384 267 0
1386 -268 0
-1386 268 0
1388 -269 0
-1388 269 0
-1391 -270 0
1391 270 0
1392 -271 0
-1392 271 0
1393 -272 0
-1393 272 0
-1394 -273 0
1394 273 0
1395 -274 0
-1395 274 0
1396 -275 0
-1396 275 0
1277 -276 0
-1277 276 0
1278 -277 0
-1278 277 0
-1397 -278 0
1397 278 0
1280 -279 0
-1280 279 0
1281 -280 0
-1281 280 0
-1398 -281 0
1398 281 0
-4 -282 0
4 282 0
-1399 -283 0
1399 283 0
-3 -284 0
3 284 0
-1400 -285 0
1400 285 0
-2 -286 0
2 286 0
-1401 -287 0
1401 287 0
-1 -288 0
1 288 0
-1402 -289 0
1402 289 0
1295 -290 0
-1295 290 0
1296 -291 0
-1296 291 0
-1403 -292 0
1403 292 0
1216 -294 0
-1216 294 0
1217 -295 0
-1217 295 0
-1404 -296 0
1404 296 0
1219 -297 0
-1219 297 0
1220 -298 0
-1220 298 0
-1405 -299 0
1405 299 0
1222 -300 0
-1222 300 0
1223 -301 0
-1223 301 0
-1406 -302 0
1406 302 0
-12 -303 0
12 303 0
-1407 -304 0
1407 304 0
-11 -305 0
11 305 0
-1408 -306 0
1408 306 0
-10 -307 0
10 307 0
-1409 -308 0
1409 308 0
1237 -309 0
-1237 309 0
1238 -310 0
-1238 310 0
-1410 -311 0
1410 311 0
1413 -312 0
-1413 312 0
1416 -313 0
-1416 313 0
1419 -314 0
-1419 314 0
1422 -315 0
-1422 315 0
1424 -316 0
-1424 316 0
1427 -317 0
-1427 317 0
1430 -318 0
-1430 318 0
1433 -319 0
-1433 319 0
1436 -320 0
-1436 320 0
1439 -321 0
-1439 321 0
1442 -322 0
-1442 322 0
1445 -323 0
-1445 323 0
1448 -324 0
-1448 324 0
1451 -325 0
-1451 325 0
1454 -326 0
-1454 326 0
1457 -328 0
-1457 328 0
1460 -329 0
-1460 329 0
1463 -330 0
-1463 330 0
-1467 -331 0
1467 331 0
-1470 -332 0
1470 332 0
-1473 -333 0
1473 333 0
1476 -334 0
-1476 334 0
1479 -335 0
-1479 335 0
1482 -336 0
-1482 336 0
-1488 -337 0
1488 337 0
1491 -338 0
-1491 338 0
-1494 -339 0
1494 339 0
-1497 -340 0
1497 340 0
1500 -342 0
-1500 342 0
-33 -11 0
-33 27 0
11 -27 33 0
-34 11 0
-34 -27 0
-11 27 34 0
-33 35 0
-34 35 0
-35 33 34 0
-36 -10 0
-36 26 0
10 -26 36 0
-37 10 0
-37 -26 0
-10 26 37 0
-36 38 0
-37 38 0
-38 36 37 0
-39 -9 0
-39 25 0
9 -25 39 0
-40 9 0
-40 -25 0
-9 25 40 0
-39 41 0
-40 41 0
-41 39 40 0
-12 -42 0
12 42 0
-42 43 0
-28 43 0
-43 42 28 0
-11 -44 0
11 44 0
-44 45 0
-27 45 0
-45 44 27 0
-10 -46 0
10 46 0
-46 47 0
-26 47 0
-47 46 26 0
-9 -48 0
9 48 0
-48 49 0
-25 49 0
-49 48 25 0
-49 -50 0
49 50 0
-51 -41 0
-51 -47 0
41 47 51 0
-52 -38 0
-52 -41 0
-52 -45 0
38 41 45 52 0
-53 -35 0
-53 -38 0
-53 -41 0
-53 -43 0
35 38 41 43 53 0
-50 54 0
-51 54 0
-52 54 0
-53 54 0
-54 50 51 52 53 0
-55 -12 0
-55 28 0
12 -28 55 0
-56 12 0
-56 -28 0
-12 28 56 0
-55 57 0
-56 57 0
-57 55 56 0
-58 -57 0
-58 -35 0
-58 -38 0
-58 -41 0
57 35 38 41 58 0
-59 -54 0
-59 -58 0
54 58 59 0
-60 -54 0
-60 59 0
54 -59 60 0
-61 54 0
-61 -59 0
-54 59 61 0
-60 62 0
-61 62 0
-62 60 61 0
-63 -7 0
-63 23 0
7 -23 63 0
-64 7 0
-64 -23 0
-7 23 64 0
-63 65 0
-64 65 0
-65 63 64 0
-66 -6 0
-66 22 0
6 -22 66 0
-67 6 0
-67 -22 0
-6 22 67 0
-66 68 0
-67 68 0
-68 66 67 0
-69 -5 0
-69 21 0
5 -21 69 0
-70 5 0
-70 -21 0
-5 21 70 0
-69 71 0
-70 71 0
-71 69 70 0
-8 -72 0
8 72 0
-72 73 0
-24 73 0
-73 72 24 0
-7 -74 0
7 74 0
-74 75 0
-23 75 0
-75 74 23 0
-6 -76 0
6 76 0
-76 77 0
-22 77 0
-77 76 22 0
-5 -78 0
5 78 0
-78 79 0
-21 79 0
-79 78 21 0
-79 -80 0
79 80 0
-81 -71 0
-81 -77 0
71 77 81 0
-82 -68 0
-82 -71 0
-82 -75 0
68 71 75 82 0
-83 -65 0
-83 -68 0
-83 -71 0
-83 -73 0
65 68 71 73 83 0
-80 84 0
-81 84 0
-82 84 0
-83 84 0
-84 80 81 82 83 0
-85 -8 0
-85 24 0
8 -24 85 0
-86 8 0
-86 -24 0
-8 24 86 0
-85 87 0
-86 87 0
-87 85 86 0
-88 -87 0
-88 -65 0
-88 -68 0
-88 -71 0
87 65 68 71 88 0
-89 -84 0
-89 -88 0
84 88 89 0
-90 -84 0
-90 89 0
84 -89 90 0
-91 84 0
-91 -89 0
-84 89 91 0
-90 92 0
-91 92 0
-92 90 91 0
-93 -3 0
-93 19 0
3 -19 93 0
-94 3 0
-94 -19 0
-3 19 94 0
-93 95 0
-94 95 0
-95 93 94 0
-96 -2 0
-96 18 0
2 -18 96 0
-97 2 0
-97 -18 0
-2 18 97 0
-96 98 0
-97 98 0
-98 96 97 0
-99 -1 0
-99 17 0
1 -17 99 0
-100 1 0
-100 -17 0
-1 17 100 0
-99 101 0
-100 101 0
-101 99 100 0
-4 -102 0
4 102 0
-102 103 0
-20 103 0
-103 102 20 0
-3 -104 0
3 104 0
-104 105 0
-19 105 0
-105 104 19 0
-2 -106 0
2 106 0
-106 107 0
-18 107 0
-107 106 18 0
-1 -108 0
1 108 0
-108 109 0
-17 109 0
-109 108 17 0
-109 -110 0
109 110 0
-111 -101 0
-111 -107 0
101 107 111 0
-112 -98 0
-112 -101 0
-112 -105 0
98 101 105 112 0
-113 -95 0
-113 -98 0
-113 -101 0
-113 -103 0
95 98 101 103 113 0
-110 114 0
-111 114 0
-112 114 0
-113 114 0
-114 110 111 112 113 0
-115 -4 0
-115 20 0
4 -20 115 0
-116 4 0
-116 -20 0
-4 20 116 0
-115 117 0
-116 117 0
-117 115 116 0
-118 -117 0
-118 -95 0
-118 -98 0
-118 -101 0
117 95 98 101 118 0
-119 -114 0
-119 -118 0
114 118 119 0
-120 -114 0
-120 119 0
114 -119 120 0
-121 114 0
-121 -119 0
-114 119 121 0
-120 122 0
-121 122 0
-122 120 121 0
-123 -15 0
-123 31 0
15 -31 123 0
-124 15 0
-124 -31 0
-15 31 124 0
-123 125 0
-124 125 0
-125 123 124 0
-126 -14 0
-126 30 0
14 -30 126 0
-127 14 0
-127 -30 0
-14 30 127 0
-126 128 0
-127 128 0
-128 126 127 0
-129 -13 0
-129 29 0
13 -29 129 0
-130 13 0
-130 -29 0
-13 29 130 0
-129 131 0
-130 131 0
-131 129 130 0
-16 -132 0
16 132 0
-132 133 0
-32 133 0
-133 132 32 0
-15 -134 0
15 134 0
-134 135 0
-31 135 0
-135 134 31 0
-14 -136 0
14 136 0
-136 137 0
-30 137 0
-137 136 30 0
-13 -138 0
13 138 0
-138 139 0
-29 139 0
-139 138 29 0
-139 -140 0
139 140 0
-141 -131 0
-141 -137 0
131 137 141 0
-142 -128 0
-142 -131 0
-142 -135 0
128 131 135 142 0
-143 -125 0
-143 -128 0
-143 -131 0
-143 -133 0
125 128 131 133 143 0
-140 144 0
-141 144 0
-142 144 0
-143 144 0
-144 140 141 142 143 0
-145 -16 0
-145 32 0
16 -32 145 0
-146 16 0
-146 -32 0
-16 32 146 0
-145 147 0
-146 147 0
-147 145 146 0
-148 -147 0
-148 -125 0
-148 -128 0
-148 -131 0
147 125 128 131 148 0
-149 -144 0
-149 -148 0
144 148 149 0
-144 -150 0
144 150 0
-150 151 0
-149 151 0
-151 150 149 0
-54 -152 0
54 152 0
-152 153 0
-59 153 0
-153 152 59 0
-84 -154 0
84 154 0
-154 155 0
-89 155 0
-155 154 89 0
-114 -156 0
114 156 0
-156 157 0
-119 157 0
-157 156 119 0
-157 -158 0
157 158 0
-159 -122 0
-159 -155 0
122 155 159 0
-160 -92 0
-160 -122 0
-160 -153 0
92 122 153 160 0
-161 -62 0
-161 -92 0
-161 -122 0
-161 -151 0
62 92 122 151 161 0
-158 162 0
-159 162 0
-160 162 0
-161 162 0
-162 158 159 160 161 0
-163 -144 0
-163 149 0
144 -149 163 0
-164 144 0
-164 -149 0
-144 149 164 0
-163 165 0
-164 165 0
-165 163 164 0
-166 -165 0
-166 -62 0
-166 -92 0
-166 -122 0
165 62 92 122 166 0
-167 -162 0
-167 -166 0
162 166 167 0
-203 -176 0
-203 175 0
176 -175 203 0
-204 176 0
-204 -175 0
-176 175 204 0
-203 205 0
-204 205 0
-205 203 204 0
-206 -6 0
-206 22 0
6 -22 206 0
-207 6 0
-207 -22 0
-6 22 207 0
-206 208 0
-207 208 0
-208 206 207 0
-209 -5 0
-209 21 0
5 -21 209 0
-210 5 0
-210 -21 0
-5 21 210 0
-209 211 0
-210 211 0
-211 209 210 0
-8 -212 0
8 212 0
-212 213 0
-24 213 0
-213 212 24 0
-7 -214 0
7 214 0
-214 215 0
-23 215 0
-215 214 23 0
-6 -216 0
6 216 0
-216 217 0
-22 217 0
-217 216 22 0
-170 -218 0
170 218 0
-219 -211 0
-219 -217 0
211 217 219 0
-220 -208 0
-220 -211 0
-220 -215 0
208 211 215 220 0
-221 -169 0
-221 -208 0
-221 -211 0
-221 -213 0
169 208 211 213 221 0
-218 222 0
-219 222 0
-220 222 0
-221 222 0
-222 218 219 220 221 0
-223 -8 0
-223 24 0
8 -24 223 0
-224 8 0
-224 -24 0
-8 24 224 0
-223 225 0
-224 225 0
-225 223 224 0
-226 -225 0
-226 -169 0
-226 -208 0
-226 -211 0
225 169 208 211 226 0
-227 -222 0
-227 -226 0
222 226 227 0
-228 -222 0
-228 227 0
222 -227 228 0
-229 222 0
-229 -227 0
-222 227 229 0
-228 230 0
-229 230 0
-230 228 229 0
-231 -173 0
-231 172 0
173 -172 231 0
-232 173 0
-232 -172 0
-173 172 232 0
-231 233 0
-232 233 0
-233 231 232 0
-234 -15 0
-234 31 0
15 -31 234 0
-235 15 0
-235 -31 0
-15 31 235 0
-234 236 0
-235 236 0
-236 234 235 0
-237 -14 0
-237 30 0
14 -30 237 0
-238 14 0
-238 -30 0
-14 30 238 0
-237 239 0
-238 239 0
-239 237 238 0
-240 -13 0
-240 29 0
13 -29 240 0
-241 13 0
-241 -29 0
-13 29 241 0
-240 242 0
-241 242 0
-242 240 241 0
-16 -243 0
16 243 0
-243 244 0
-32 244 0
-244 243 32 0
-15 -245 0
15 245 0
-245 246 0
-31 246 0
-246 245 31 0
-14 -247 0
14 247 0
-247 248 0
-30 248 0
-248 247 30 0
-171 -249 0
171 249 0
-250 -242 0
-250 -248 0
242 248 250 0
-251 -239 0
-251 -242 0
-251 -246 0
239 242 246 251 0
-252 -236 0
-252 -239 0
-252 -242 0
-252 -244 0
236 239 242 244 252 0
-249 253 0
-250 253 0
-251 253 0
-252 253 0
-253 249 250 251 252 0
-254 -16 0
-254 32 0
16 -32 254 0
-255 16 0
-255 -32 0
-16 32 255 0
-254 256 0
-255 256 0
-256 254 255 0
-257 -256 0
-257 -236 0
-257 -239 0
-257 -242 0
256 236 239 242 257 0
-258 -253 0
-258 -257 0
253 257 258 0
-253 -259 0
253 259 0
-259 260 0
-258 260 0
-260 259 258 0
-176 261 0
-175 261 0
-261 176 175 0
-222 -262 0
222 262 0
-262 263 0
-227 263 0
-263 262 227 0
-173 -264 0
173 264 0
-264 265 0
-172 265 0
-265 264 172 0
-265 -266 0
265 266 0
-267 -233 0
-267 -263 0
233 263 267 0
-268 -230 0
-268 -233 0
-268 -261 0
230 233 261 268 0
-269 -205 0
-269 -230 0
-269 -233 0
-269 -260 0
205 230 233 260 269 0
-266 270 0
-267 270 0
-268 270 0
-269 270 0
-270 266 267 268 269 0
-271 -253 0
-271 258 0
253 -258 271 0
-272 253 0
-272 -258 0
-253 258 272 0
-271 273 0
-272 273 0
-273 271 272 0
-274 -273 0
-274 -205 0
-274 -230 0
-274 -233 0
273 205 230 233 274 0
-275 -270 0
-275 -274 0
270 274 275 0
-276 -2 0
-276 18 0
2 -18 276 0
-277 2 0
-277 -18 0
-2 18 277 0
-276 278 0
-277 278 0
-278 276 277 0
-279 -1 0
-279 17 0
1 -17 279 0
-280 1 0
-280 -17 0
-1 17 280 0
-279 281 0
-280 281 0
-281 279 280 0
-4 -282 0
4 282 0
-282 283 0
-20 283 0
-283 282 20 0
-3 -284 0
3 284 0
-284 285 0
-19 285 0
-285 284 19 0
-2 -286 0
2 286 0
-286 287 0
-18 287 0
-287 286 18 0
-1 -288 0
1 288 0
-288 289 0
-17 289 0
-289 288 17 0
-290 -4 0
-290 20 0
4 -20 290 0
-291 4 0
-291 -20 0
-4 20 291 0
-290 292 0
-291 292 0
-292 290 291 0
-293 -292 0
-293 -168 0
-293 -278 0
-293 -281 0
292 168 278 281 293 0
-294 -11 0
-294 27 0
11 -27 294 0
-295 11 0
-295 -27 0
-11 27 295 0
-294 296 0
-295 296 0
-296 294 295 0
-297 -10 0
-297 26 0
10 -26 297 0
-298 10 0
-298 -26 0
-10 26 298 0
-297 299 0
-298 299 0
-299 297 298 0
-300 -9 0
-300 25 0
9 -25 300 0
-301 9 0
-301 -25 0
-9 25 301 0
-300 302 0
-301 302 0
-302 300 301 0
-12 -303 0
12 303 0
-303 304 0
-28 304 0
-304 303 28 0
-11 -305 0
11 305 0
-305 306 0
-27 306 0
-306 305 27 0
-10 -307 0
10 307 0
-307 308 0
-26 308 0
-308 307 26 0
-309 -12 0
-309 28 0
12 -28 309 0
-310 12 0
-310 -28 0
-12 28 310 0
-309 311 0
-310 311 0
-311 309 310 0
-312 -311 0
-312 -296 0
-312 -299 0
-312 -302 0
311 296 299 302 312 0
-313 -167 275 0
-313 167 -275 0
313 -167 -275 0
313 167 275 0
-314 -166 274 0
-314 166 -274 0
314 -166 -274 0
314 166 274 0
-315 -162 270 0
-315 162 -270 0
315 -162 -270 0
315 162 270 0
-313 -314 -315 316 0
-316 313 0
-316 314 0
-316 315 0
-3 -177 -317 0
-3 177 317 0
3 -177 317 0
3 177 -317 0
-19 -178 -318 0
-19 178 318 0
19 -178 318 0
19 178 -318 0
-5 -179 -319 0
-5 179 319 0
5 -179 319 0
5 179 -319 0
-21 -180 -320 0
-21 180 320 0
21 -180 320 0
21 180 -320 0
-7 -181 -321 0
-7 181 321 0
7 -181 321 0
7 181 -321 0
-23 -182 -322 0
-23 182 322 0
23 -182 322 0
23 182 -322 0
-9 -183 -323 0
-9 183 323 0
9 -183 323 0
9 183 -323 0
-25 -184 -324 0
-25 184 324 0
25 -184 324 0
25 184 -324 0
-13 -185 -325 0
-13 185 325 0
13 -185 325 0
13 185 -325 0
-29 -186 -326 0
-29 186 326 0
29 -186 326 0
29 186 -326 0
-168 -187 -327 0
-168 187 327 0
168 -187 327 0
168 187 -327 0
-278 -188 -328 0
-278 188 328 0
278 -188 328 0
278 188 -328 0
-281 -189 -329 0
-281 189 329 0
281 -189 329 0
281 189 -329 0
-283 -190 -330 0
-283 190 330 0
283 -190 330 0
283 190 -330 0
-285 -191 -331 0
-285 191 331 0
285 -191 331 0
285 191 -331 0
-287 -192 -332 0
-287 192 332 0
287 -192 332 0
287 192 -332 0
-289 -193 -333 0
-289 193 333 0
289 -193 333 0
289 193 -333 0
-293 -194 -334 0
-293 194 334 0
293 -194 334 0
293 194 -334 0
-296 -195 -335 0
-296 195 335 0
296 -195 335 0
296 195 -335 0
-299 -196 -336 0
-299 196 336 0
299 -196 336 0
299 196 -336 0
-302 -197 -337 0
-302 197 337 0
302 -197 337 0
302 197 -337 0
-304 -198 -338 0
-304 198 338 0
304 -198 338 0
304 198 -338 0
-306 -199 -339 0
-306 199 339 0
306 -199 339 0
306 199 -339 0
-308 -200 -340 0
-308 200 340 0
308 -200 340 0
308 200 -340 0
-174 -201 -341 0
-174 201 341 0
174 -201 341 0
174 201 -341 0
-312 -202 -342 0
-312 202 342 0
312 -202 342 0
312 202 -342 0
317 318 319 320 321 322 323 324 325 326 327 328 329 330 331 332 333 334 335 336 337 338 339 340 341 342 316 0
-11 -1216 0
27 -1216 0
11 -27 1216 0
11 -1217 0
-27 -1217 0
-11 27 1217 0
-33 -1218 0
-34 -1218 0
33 34 1218 0
-10 -1219 0
26 -1219 0
10 -26 1219 0
10 -1220 0
-26 -1220 0
-10 26 1220 0
-36 -1221 0
-37 -1221 0
36 37 1221 0
-9 -1222 0
25 -1222 0
9 -25 1222 0
9 -1223 0
-25 -1223 0
-9 25 1223 0
-39 -1224 0
-40 -1224 0
39 40 1224 0
-28 -1225 0
-42 -1225 0
28 42 1225 0
-27 -1226 0
-44 -1226 0
27 44 1226 0
-26 -1227 0
-46 -1227 0
26 46 1227 0
-25 -1228 0
-48 -1228 0
25 48 1228 0
-41 -1229 0
-47 -1229 0
41 47 1229 0
-38 -1230 0
-41 -1230 0
38 41 1230 0
-45 -1231 0
1230 -1231 0
45 -1230 1231 0
-35 -1232 0
1230 -1232 0
35 -1230 1232 0
-43 -1233 0
1232 -1233 0
43 -1232 1233 0
-50 -1234 0
-51 -1234 0
50 51 1234 0
-52 -1235 0
-53 -1235 0
52 53 1235 0
1234 -1236 0
1235 -1236 0
-1234 -1235 1236 0
-12 -1237 0
28 -1237 0
12 -28 1237 0
12 -1238 0
-28 -1238 0
-12 28 1238 0
-55 -1239 0
-56 -1239 0
55 56 1239 0
-57 -1240 0
1232 -1240 0
57 -1232 1240 0
-54 -1241 0
-58 -1241 0
54 58 1241 0
-54 -1242 0
59 -1242 0
54 -59 1242 0
54 -1243 0
-59 -1243 0
-54 59 1243 0
-60 -1244 0
-61 -1244 0
60 61 1244 0
-7 -1245 0
23 -1245 0
7 -23 1245 0
7 -1246 0
-23 -1246 0
-7 23 1246 0
-63 -1247 0
-64 -1247 0
63 64 1247 0
-6 -1248 0
22 -1248 0
6 -22 1248 0
6 -1249 0
-22 -1249 0
-6 22 1249 0
-66 -1250 0
-67 -1250 0
66 67 1250 0
-5 -1251 0
21 -1251 0
5 -21 1251 0
5 -1252 0
-21 -1252 0
-5 21 1252 0
-69 -1253 0
-70 -1253 0
69 70 1253 0
-24 -1254 0
-72 -1254 0
24 72 1254 0
-23 -1255 0
-74 -1255 0
23 74 1255 0
-22 -1256 0
-76 -1256 0
22 76 1256 0
-21 -1257 0
-78 -1257 0
21 78 1257 0
-71 -1258 0
-77 -1258 0
71 77 1258 0
-68 -1259 0
-71 -1259 0
68 71 1259 0
-75 -1260 0
1259 -1260 0
75 -1259 1260 0
-65 -1261 0
1259 -1261 0
65 -1259 1261 0
-73 -1262 0
1261 -1262 0
73 -1261 1262 0
-80 -1263 0
-81 -1263 0
80 81 1263 0
-82 -1264 0
-83 -1264 0
82 83 1264 0
1263 -1265 0
1264 -1265 0
-1263 -1264 1265 0
-8 -1266 0
24 -1266 0
8 -24 1266 0
8 -1267 0
-24 -1267 0
-8 24 1267 0
-85 -1268 0
-86 -1268 0
85 86 1268 0
-87 -1269 0
1261 -1269 0
87 -1261 1269 0
-84 -1270 0
-88 -1270 0
84 88 1270 0
-84 -1271 0
89 -1271 0
84 -89 1271 0
84 -1272 0
-89 -1272 0
-84 89 1272 0
-90 -1273 0
-91 -1273 0
90 91 1273 0
-3 -1274 0
19 -1274 0
3 -19 1274 0
3 -1275 0
-19 -1275 0
-3 19 1275 0
-93 -1276 0
-94 -1276 0
93 94 1276 0
-2 -1277 0
18 -1277 0
2 -18 1277 0
2 -1278 0
-18 -1278 0
-2 18 1278 0
-96 -1279 0
-97 -1279 0
96 97 1279 0
-1 -1280 0
17 -1280 0
1 -17 1280 0
1 -1281 0
-17 -1281 0
-1 17 1281 0
-99 -1282 0
-100 -1282 0
99 100 1282 0
-20 -1283 0
-102 -1283 0
20 102 1283 0
-19 -1284 0
-104 -1284 0
19 104 1284 0
-18 -1285 0
-106 -1285 0
18 106 1285 0
-17 -1286 0
-108 -1286 0
17 108 1286 0
-101 -1287 0
-107 -1287 0
101 107 1287 0
-98 -1288 0
-101 -1288 0
98 101 1288 0
-105 -1289 0
1288 -1289 0
105 -1288 1289 0
-95 -1290 0
1288 -1290 0
95 -1288 1290 0
-103 -1291 0
1290 -1291 0
103 -1290 1291 0
-110 -1292 0
-111 -1292 0
110 111 1292 0
-112 -1293 0
-113 -1293 0
112 113 1293 0
1292 -1294 0
1293 -1294 0
-1292 -1293 1294 0
-4 -1295 0
20 -1295 0
4 -20 1295 0
4 -1296 0
-20 -1296 0
-4 20 1296 0
-115 -1297 0
-116 -1297 0
115 116 1297 0
-117 -1298 0
1290 -1298 0
117 -1290 1298 0
-114 -1299 0
-118 -1299 0
114 118 1299 0
-114 -1300 0
119 -1300 0
114 -119 1300 0
114 -1301 0
-119 -1301 0
-114 119 1301 0
-120 -1302 0
-121 -1302 0
120 121 1302 0
-15 -1303 0
31 -1303 0
15 -31 1303 0
15 -1304 0
-31 -1304 0
-15 31 1304 0
-123 -1305 0
-124 -1305 0
123 124 1305 0
-14 -1306 0
30 -1306 0
14 -30 1306 0
14 -1307 0
-30 -1307 0
-14 30 1307 0
-126 -1308 0
-127 -1308 0
126 127 1308 0
-13 -1309 0
29 -1309 0
13 -29 1309 0
13 -1310 0
-29 -1310 0
-13 29 1310 0
-129 -1311 0
-130 -1311 0
129 130 1311 0
-32 -1312 0
-132 -1312 0
32 132 1312 0
-31 -1313 0
-134 -1313 0
31 134 1313 0
-30 -1314 0
-136 -1314 0
30 136 1314 0
-29 -1315 0
-138 -1315 0
29 138 1315 0
-131 -1316 0
-137 -1316 0
131 137 1316 0
-128 -1317 0
-131 -1317 0
128 131 1317 0
-135 -1318 0
1317 -1318 0
135 -1317 1318 0
-125 -1319 0
1317 -1319 0
125 -1317 1319 0
-133 -1320 0
1319 -1320 0
133 -1319 1320 0
-140 -1321 0
-141 -1321 0
140 141 1321 0
-142 -1322 0
-143 -1322 0
142 143 1322 0
1321 -1323 0
1322 -1323 0
-1321 -1322 1323 0
-16 -1324 0
32 -1324 0
16 -32 1324 0
16 -1325 0
-32 -1325 0
-16 32 1325 0
-145 -1326 0
-146 -1326 0
145 146 1326 0
-147 -1327 0
1319 -1327 0
147 -1319 1327 0
-144 -1328 0
-148 -1328 0
144 148 1328 0
-149 -1329 0
-150 -1329 0
149 150 1329 0
-59 -1330 0
-152 -1330 0
59 152 1330 0
-89 -1331 0
-154 -1331 0
89 154 1331 0
-119 -1332 0
-156 -1332 0
119 156 1332 0
-122 -1333 0
-155 -1333 0
122 155 1333 0
-92 -1334 0
-122 -1334 0
92 122 1334 0
-153 -1335 0
1334 -1335 0
153 -1334 1335 0
-62 -1336 0
1334 -1336 0
62 -1334 1336 0
-151 -1337 0
1336 -1337 0
151 -1336 1337 0
-158 -1338 0
-159 -1338 0
158 159 1338 0
-160 -1339 0
-161 -1339 0
160 161 1339 0
1338 -1340 0
1339 -1340 0
-1338 -1339 1340 0
-144 -1341 0
149 -1341 0
144 -149 1341 0
144 -1342 0
-149 -1342 0
-144 149 1342 0
-163 -1343 0
-164 -1343 0
163 164 1343 0
-165 -1344 0
1336 -1344 0
165 -1336 1344 0
-162 -1345 0
-166 -1345 0
162 166 1345 0
-203 -1346 0
-204 -1346 0
203 204 1346 0
-206 -1347 0
-207 -1347 0
206 207 1347 0
-209 -1348 0
-210 -1348 0
209 210 1348 0
-24 -1349 0
-212 -1349 0
24 212 1349 0
-23 -1350 0
-214 -1350 0
23 214 1350 0
-22 -1351 0
-216 -1351 0
22 216 1351 0
-211 -1352 0
-217 -1352 0
211 217 1352 0
-208 -1353 0
-211 -1353 0
208 211 1353 0
-215 -1354 0
1353 -1354 0
215 -1353 1354 0
-218 -1355 0
-219 -1355 0
218 219 1355 0
-220 -1356 0
-221 -1356 0
220 221 1356 0
1355 -1357 0
1356 -1357 0
-1355 -1356 1357 0
-223 -1358 0
-224 -1358 0
223 224 1358 0
-222 -1359 0
-226 -1359 0
222 226 1359 0
-222 -1360 0
227 -1360 0
222 -227 1360 0
222 -1361 0
-227 -1361 0
-222 227 1361 0
-228 -1362 0
-229 -1362 0
228 229 1362 0
-231 -1363 0
-232 -1363 0
231 232 1363 0
-234 -1364 0
-235 -1364 0
234 235 1364 0
-237 -1365 0
-238 -1365 0
237 238 1365 0
-240 -1366 0
-241 -1366 0
240 241 1366 0
-32 -1367 0
-243 -1367 0
32 243 1367 0
-31 -1368 0
-245 -1368 0
31 245 1368 0
-30 -1369 0
-247 -1369 0
30 247 1369 0
-242 -1370 0
-248 -1370 0
242 248 1370 0
-239 -1371 0
-242 -1371 0
239 242 1371 0
-246 -1372 0
1371 -1372 0
246 -1371 1372 0
-236 -1373 0
1371 -1373 0
236 -1371 1373 0
-244 -1374 0
1373 -1374 0
244 -1373 1374 0
-249 -1375 0
-250 -1375 0
249 250 1375 0
-251 -1376 0
-252 -1376 0
251 252 1376 0
1375 -1377 0
1376 -1377 0
-1375 -1376 1377 0
-254 -1378 0
-255 -1378 0
254 255 1378 0
-256 -1379 0
1373 -1379 0
256 -1373 1379 0
-253 -1380 0
-257 -1380 0
253 257 1380 0
-258 -1381 0
-259 -1381 0
258 259 1381 0
-227 -1382 0
-262 -1382 0
227 262 1382 0
232 -1383 0
-264 -1383 0
-232 264 1383 0
-233 -1384 0
-263 -1384 0
233 263 1384 0
-230 -1385 0
-233 -1385 0
230 233 1385 0
-261 -1386 0
1385 -1386 0
261 -1385 1386 0
-205 -1387 0
1385 -1387 0
205 -1385 1387 0
-260 -1388 0
1387 -1388 0
260 -1387 1388 0
-266 -1389 0
-267 -1389 0
266 267 1389 0
-268 -1390 0
-269 -1390 0
268 269 1390 0
1389 -1391 0
1390 -1391 0
-1389 -1390 1391 0
-253 -1392 0
258 -1392 0
253 -258 1392 0
253 -1393 0
-258 -1393 0
-253 258 1393 0
-271 -1394 0
-272 -1394 0
271 272 1394 0
-273 -1395 0
1387 -1395 0
273 -1387 1395 0
-270 -1396 0
-274 -1396 0
270 274 1396 0
-276 -1397 0
-277 -1397 0
276 277 1397 0
-279 -1398 0
-280 -1398 0
279 280 1398 0
-20 -1399 0
-282 -1399 0
20 282 1399 0
-19 -1400 0
-284 -1400 0
19 284 1400 0
-18 -1401 0
-286 -1401 0
18 286 1401 0
-17 -1402 0
-288 -1402 0
17 288 1402 0
-290 -1403 0
-291 -1403 0
290 291 1403 0
-294 -1404 0
-295 -1404 0
294 295 1404 0
-297 -1405 0
-298 -1405 0
297 298 1405 0
-300 -1406 0
-301 -1406 0
300 301 1406 0
-28 -1407 0
-303 -1407 0
28 303 1407 0
-27 -1408 0
-305 -1408 0
27 305 1408 0
-26 -1409 0
-307 -1409 0
26 307 1409 0
-309 -1410 0
-310 -1410 0
309 310 1410 0
-296 -1411 0
-299 -1411 0
296 299 1411 0
-302 -1412 0
-311 -1412 0
302 311 1412 0
1411 -1413 0
1412 -1413 0
-1411 -1412 1413 0
167 -1414 0
-275 -1414 0
-167 275 1414 0
-167 -1415 0
275 -1415 0
167 -275 1415 0
-1414 -1416 0
-1415 -1416 0
1414 1415 1416 0
166 -1417 0
-274 -1417 0
-166 274 1417 0
-166 -1418 0
274 -1418 0
166 -274 1418 0
-1417 -1419 0
-1418 -1419 0
1417 1418 1419 0
162 -1420 0
-270 -1420 0
-162 270 1420 0
-162 -1421 0
270 -1421 0
162 -270 1421 0
-1420 -1422 0
-1421 -1422 0
1420 1421 1422 0
313 -1423 0
314 -1423 0
-313 -314 1423 0
315 -1424 0
1423 -1424 0
-315 -1423 1424 0
-3 -1425 0
-177 -1425 0
3 177 1425 0
3 -1426 0
177 -1426 0
-3 -177 1426 0
-1425 -1427 0
-1426 -1427 0
1425 1426 1427 0
-19 -1428 0
-178 -1428 0
19 178 1428 0
19 -1429 0
178 -1429 0
-19 -178 1429 0
-1428 -1430 0
-1429 -1430 0
1428 1429 1430 0
-5 -1431 0
-179 -1431 0
5 179 1431 0
5 -1432 0
179 -1432 0
-5 -179 1432 0
-1431 -1433 0
-1432 -1433 0
1431 1432 1433 0
-21 -1434 0
-180 -1434 0
21 180 1434 0
21 -1435 0
180 -1435 0
-21 -180 1435 0
-1434 -1436 0
-1435 -1436 0
1434 1435 1436 0
-7 -1437 0
-181 -1437 0
7 181 1437 0
7 -1438 0
181 -1438 0
-7 -181 1438 0
-1437 -1439 0
-1438 -1439 0
1437 1438 1439 0
-23 -1440 0
-182 -1440 0
23 182 1440 0
23 -1441 0
182 -1441 0
-23 -182 1441 0
-1440 -1442 0
-1441 -1442 0
1440 1441 1442 0
-9 -1443 0
-183 -1443 0
9 183 1443 0
9 -1444 0
183 -1444 0
-9 -183 1444 0
-1443 -1445 0
-1444 -1445 0
1443 1444 1445 0
-25 -1446 0
-184 -1446 0
25 184 1446 0
25 -1447 0
184 -1447 0
-25 -184 1447 0
-1446 -1448 0
-1447 -1448 0
1446 1447 1448 0
-13 -1449 0
-185 -1449 0
13 185 1449 0
13 -1450 0
185 -1450 0
-13 -185 1450 0
-1449 -1451 0
-1450 -1451 0
1449 1450 1451 0
-29 -1452 0
-186 -1452 0
29 186 1452 0
29 -1453 0
186 -1453 0
-29 -186 1453 0
-1452 -1454 0
-1453 -1454 0
1452 1453 1454 0
-188 -1455 0
-278 -1455 0
188 278 1455 0
188 -1456 0
278 -1456 0
-188 -278 1456 0
-1455 -1457 0
-1456 -1457 0
1455 1456 1457 0
-189 -1458 0
-281 -1458 0
189 281 1458 0
189 -1459 0
281 -1459 0
-189 -281 1459 0
-1458 -1460 0
-1459 -1460 0
1458 1459 1460 0
-190 -1461 0
-283 -1461 0
190 283 1461 0
190 -1462 0
283 -1462 0
-190 -283 1462 0
-1461 -1463 0
-1462 -1463 0
1461 1462 1463 0
-19 -1464 0
191 -1464 0
19 -191 1464 0
-285 -1465 0
1464 -1465 0
285 -1464 1465 0
-191 -1466 0
285 -1466 0
191 -285 1466 0
-1465 -1467 0
-1466 -1467 0
1465 1466 1467 0
-192 -1468 0
-1278 -1468 0
192 1278 1468 0
192 -1469 0
1278 -1469 0
-192 -1278 1469 0
-1468 -1470 0
-1469 -1470 0
1468 1469 1470 0
-193 -1471 0
-1281 -1471 0
193 1281 1471 0
193 -1472 0
1281 -1472 0
-193 -1281 1472 0
-1471 -1473 0
-1472 -1473 0
1471 1472 1473 0
-194 -1474 0
-293 -1474 0
194 293 1474 0
194 -1475 0
293 -1475 0
-194 -293 1475 0
-1474 -1476 0
-1475 -1476 0
1474 1475 1476 0
-195 -1477 0
-296 -1477 0
195 296 1477 0
195 -1478 0
296 -1478 0
-195 -296 1478 0
-1477 -1479 0
-1478 -1479 0
1477 1478 1479 0
-196 -1480 0
-299 -1480 0
196 299 1480 0
196 -1481 0
299 -1481 0
-196 -299 1481 0
-1480 -1482 0
-1481 -1482 0
1480 1481 1482 0
-1222 -1483 0
-1223 -1483 0
1222 1223 1483 0
197 -1484 0
-302 -1484 0
-197 302 1484 0
1483 -1485 0
1484 -1485 0
-1483 -1484 1485 0
-197 -1486 0
302 -1486 0
197 -302 1486 0
-1483 -1487 0
1486 -1487 0
1483 -1486 1487 0
-1485 -1488 0
-1487 -1488 0
1485 1487 1488 0
-198 -1489 0
-304 -1489 0
198 304 1489 0
198 -1490 0
304 -1490 0
-198 -304 1490 0
-1489 -1491 0
-1490 -1491 0
1489 1490 1491 0
-199 -1492 0
-1217 -1492 0
199 1217 1492 0
199 -1493 0
1217 -1493 0
-199 -1217 1493 0
-1492 -1494 0
-1493 -1494 0
1492 1493 1494 0
-200 -1495 0
-1220 -1495 0
200 1220 1495 0
200 -1496 0
1220 -1496 0
-200 -1220 1496 0
-1495 -1497 0
-1496 -1497 0
1495 1496 1497 0
-202 -1498 0
-312 -1498 0
202 312 1498 0
202 -1499 0
312 -1499 0
-202 -312 1499 0
-1498 -1500 0
-1499 -1500 0
1498 1499 1500 0
